15
45
957
987
971
956
802
946
684
984
742
828
727
972
979
906
202
51	51
639	639
398	398
744	744
350	350
869	869
587	587
629	629
215	215
690	690
760	760
407	407
498	498
981	981
61	61
501	501
32	32
60	60
873	873
491	491
689	689
740	740
939	939
163	163
302	302
500	500
584	584
888	888
899	899
85	85
502	502
925	925
907	907
647	647
888	888
102	102
902	902
543	543
198	198
985	985
965	965
37	37
611	611
613	613
836	836
